NAME          DCAP_2_3_3_300_SS241
ROWS
 N  OBJ
 L  CON1
 L  CON2
 L  CON3
 L  CON4
 L  CON5
 L  CON6
 L  CON7
 L  CON8
 L  CON9
 L  CON10
 L  CON11
 L  CON12
 E  CON13
 E  CON14
 E  CON15
 E  CON16
 E  CON17
 E  CON18
 E  CON19
 E  CON20
 E  CON21
COLUMNS
    x[1,1]    OBJ       6.180167      CON1      1.000000    
    x[1,1]    CON7      -1.000000     CON8      -1.000000   
    x[1,1]    CON9      -1.000000   
    x[1,2]    OBJ       6.563535      CON2      1.000000    
    x[1,2]    CON8      -1.000000     CON9      -1.000000   
    x[1,3]    OBJ       7.443064      CON3      1.000000    
    x[1,3]    CON9      -1.000000   
    x[2,1]    OBJ       6.732585      CON4      1.000000    
    x[2,1]    CON10     -1.000000     CON11     -1.000000   
    x[2,1]    CON12     -1.000000   
    x[2,2]    OBJ       5.039546      CON5      1.000000    
    x[2,2]    CON11     -1.000000     CON12     -1.000000   
    x[2,3]    OBJ       6.054841      CON6      1.000000    
    x[2,3]    CON12     -1.000000   
    MARKER    'MARKER'                'INTORG'
    u[1,1]    OBJ       48.076654     CON1      -1.000000   
    u[1,2]    OBJ       20.066487     CON2      -1.000000   
    u[1,3]    OBJ       32.230043     CON3      -1.000000   
    u[2,1]    OBJ       49.996186     CON4      -1.000000   
    u[2,2]    OBJ       49.466655     CON5      -1.000000   
    u[2,3]    OBJ       27.484319     CON6      -1.000000   
    y[1,1,1]  OBJ       7.011951      CON7      1.111642    
    y[1,1,1]  CON13     1.000000    
    y[1,1,2]  OBJ       9.362100      CON8      1.309882    
    y[1,1,2]  CON14     1.000000    
    y[1,1,3]  OBJ       7.920173      CON9      1.287035    
    y[1,1,3]  CON15     1.000000    
    y[1,2,1]  OBJ       6.502145      CON7      1.131763    
    y[1,2,1]  CON16     1.000000    
    y[1,2,2]  OBJ       6.270019      CON8      1.026811    
    y[1,2,2]  CON17     1.000000    
    y[1,2,3]  OBJ       5.412466      CON9      0.821382    
    y[1,2,3]  CON18     1.000000    
    y[1,3,1]  OBJ       8.028561      CON7      0.897354    
    y[1,3,1]  CON19     1.000000    
    y[1,3,2]  OBJ       5.209729      CON8      1.299439    
    y[1,3,2]  CON20     1.000000    
    y[1,3,3]  OBJ       6.178694      CON9      0.956652    
    y[1,3,3]  CON21     1.000000    
    y[2,1,1]  OBJ       7.522613      CON10     1.111642    
    y[2,1,1]  CON13     1.000000    
    y[2,1,2]  OBJ       5.281527      CON11     1.309882    
    y[2,1,2]  CON14     1.000000    
    y[2,1,3]  OBJ       8.604492      CON12     1.287035    
    y[2,1,3]  CON15     1.000000    
    y[2,2,1]  OBJ       9.404733      CON10     1.131763    
    y[2,2,1]  CON16     1.000000    
    y[2,2,2]  OBJ       5.949053      CON11     1.026811    
    y[2,2,2]  CON17     1.000000    
    y[2,2,3]  OBJ       9.804508      CON12     0.821382    
    y[2,2,3]  CON18     1.000000    
    y[2,3,1]  OBJ       5.695197      CON10     0.897354    
    y[2,3,1]  CON19     1.000000    
    y[2,3,2]  OBJ       5.917779      CON11     1.299439    
    y[2,3,2]  CON20     1.000000    
    y[2,3,3]  OBJ       7.005744      CON12     0.956652    
    y[2,3,3]  CON21     1.000000    
    z[1,1]    OBJ       841.427766    CON13     1.000000    
    z[1,2]    OBJ       795.939156    CON14     1.000000    
    z[1,3]    OBJ       977.179557    CON15     1.000000    
    z[2,1]    OBJ       774.536316    CON16     1.000000    
    z[2,2]    OBJ       781.387508    CON17     1.000000    
    z[2,3]    OBJ       961.964030    CON18     1.000000    
    z[3,1]    OBJ       502.413328    CON19     1.000000    
    z[3,2]    OBJ       931.303835    CON20     1.000000    
    z[3,3]    OBJ       689.819357    CON21     1.000000    
    MARKER    'MARKER'                 'INTEND'
RHS
    RHS       CON1      -0.000000     CON2      -0.000000   
    RHS       CON3      -0.000000     CON4      -0.000000   
    RHS       CON5      -0.000000     CON6      -0.000000   
    RHS       CON7      -0.000000     CON8      -0.000000   
    RHS       CON9      -0.000000     CON10     -0.000000   
    RHS       CON11     -0.000000     CON12     -0.000000   
    RHS       CON13     1.000000      CON14     1.000000    
    RHS       CON15     1.000000      CON16     1.000000    
    RHS       CON17     1.000000      CON18     1.000000    
    RHS       CON19     1.000000      CON20     1.000000    
    RHS       CON21     1.000000    
BOUNDS
 BV BOUND     u[1,1]  
 BV BOUND     u[1,2]  
 BV BOUND     u[1,3]  
 BV BOUND     u[2,1]  
 BV BOUND     u[2,2]  
 BV BOUND     u[2,3]  
 BV BOUND     y[1,1,1]
 BV BOUND     y[1,1,2]
 BV BOUND     y[1,1,3]
 BV BOUND     y[1,2,1]
 BV BOUND     y[1,2,2]
 BV BOUND     y[1,2,3]
 BV BOUND     y[1,3,1]
 BV BOUND     y[1,3,2]
 BV BOUND     y[1,3,3]
 BV BOUND     y[2,1,1]
 BV BOUND     y[2,1,2]
 BV BOUND     y[2,1,3]
 BV BOUND     y[2,2,1]
 BV BOUND     y[2,2,2]
 BV BOUND     y[2,2,3]
 BV BOUND     y[2,3,1]
 BV BOUND     y[2,3,2]
 BV BOUND     y[2,3,3]
 BV BOUND     z[1,1]  
 BV BOUND     z[1,2]  
 BV BOUND     z[1,3]  
 BV BOUND     z[2,1]  
 BV BOUND     z[2,2]  
 BV BOUND     z[2,3]  
 BV BOUND     z[3,1]  
 BV BOUND     z[3,2]  
 BV BOUND     z[3,3]  
ENDATA
